TCS_Benchmarks/redos_fix/corpus1_output_distinct_2112_2111_0_0.txt
([\d\w]{2,4})+
[\d\w]{2,4}